13 26
6 1 102
13 2 109
13 3 69
13 4 110
11 5 83
12 7 69
6 8 79
8 9 61
5 10 87
6 11 85
9 12 73
6 13 92
8 13 85
2 7 59
1 8 91
9 2 55
2 3 76
12 10 99
1 10 107
7 1 59
7 13 86
2 10 57
10 11 77
11 3 83
4 8 59
2 4 69

